g3 1 1 0	# problem inst_sans_ref
 8 8 1 0 0	# vars, constraints, objectives, ranges, eqns
 8 1	# nonlinear constraints, objectives
 0 0	# network constraints: nonlinear, linear
 8 8 8	# nonlinear vars in constraints, objectives, both
 0 0 0 1	# linear network variables; functions; arith, flags
 0 0 0 0 0	# discrete variables: binary, integer, nonlinear (b,c,o)
 64 8	# nonzeros in Jacobian, gradients
 0 0	# max name lengths: constraints, variables
 0 0 0 0 0	# common exprs: b,c,o,c1,o1
b
0 0 1
0 0 1
0 0 1
0 0 1
0 0 1
0 0 1
0 0 1
0 0 1
r
1 48.14
1 22.3
1 52.73
1 75.04
1 76.59
1 73.3
1 43.03
1 63.61
C0
o54
16
o2
o2
n0.705
v0
v4
o2
o2
n0.86
v0
v5
o2
o2
n0.785
v0
v7
o2
o2
n-0.44
v1
v5
o2
o2
n0.89
v2
v4
o2
o2
n-0.54
v3
v4
o2
o2
n-0.715
v3
v5
o2
o2
n0.875
v3
v7
o2
o2
n0.705
v4
v0
o2
o2
n0.89
v4
v2
o2
o2
n-0.54
v4
v3
o2
o2
n0.86
v5
v0
o2
o2
n-0.44
v5
v1
o2
o2
n-0.715
v5
v3
o2
o2
n0.785
v7
v0
o2
o2
n0.875
v7
v3
C1
o54
14
o2
o2
n-0.625
v0
v6
o2
o2
n-0.915
v1
v6
o2
o2
n0.28
v1
v7
o2
o2
n-0.7
v2
v5
o2
o2
n-0.155
v2
v7
o2
o2
n0.465
v3
v4
o2
o2
n0.12
v3
v7
o2
o2
n0.465
v4
v3
o2
o2
n-0.7
v5
v2
o2
o2
n-0.625
v6
v0
o2
o2
n-0.915
v6
v1
o2
o2
n0.28
v7
v1
o2
o2
n-0.155
v7
v2
o2
o2
n0.12
v7
v3
C2
o54
16
o2
o2
n-0.485
v0
v5
o2
o2
n0.98
v0
v7
o2
o2
n-0.765
v1
v4
o2
o2
n-0.115
v1
v6
o2
o2
n0.67
v1
v7
o2
o2
n0.13
v2
v4
o2
o2
n-0.08
v2
v7
o2
o2
n0.405
v3
v7
o2
o2
n-0.765
v4
v1
o2
o2
n0.13
v4
v2
o2
o2
n-0.485
v5
v0
o2
o2
n-0.115
v6
v1
o2
o2
n0.98
v7
v0
o2
o2
n0.67
v7
v1
o2
o2
n-0.08
v7
v2
o2
o2
n0.405
v7
v3
C3
o54
16
o2
o2
n0.94
v0
v4
o2
o2
n0.525
v0
v7
o2
o2
n-0.975
v1
v4
o2
o2
n-0.53
v1
v6
o2
o2
n0.62
v2
v6
o2
o2
n-0.145
v3
v4
o2
o2
n0.395
v3
v6
o2
o2
n0.385
v3
v7
o2
o2
n0.94
v4
v0
o2
o2
n-0.975
v4
v1
o2
o2
n-0.145
v4
v3
o2
o2
n-0.53
v6
v1
o2
o2
n0.62
v6
v2
o2
o2
n0.395
v6
v3
o2
o2
n0.525
v7
v0
o2
o2
n0.385
v7
v3
C4
o54
16
o2
o2
n-0.375
v0
v5
o2
o2
n-0.565
v0
v7
o2
o2
n0.06
v1
v4
o2
o2
n-0.735
v1
v5
o2
o2
n0.65
v2
v5
o2
o2
n-0.61
v2
v6
o2
o2
n0.755
v3
v4
o2
o2
n-0.915
v3
v7
o2
o2
n0.06
v4
v1
o2
o2
n0.755
v4
v3
o2
o2
n-0.375
v5
v0
o2
o2
n-0.735
v5
v1
o2
o2
n0.65
v5
v2
o2
o2
n-0.61
v6
v2
o2
o2
n-0.565
v7
v0
o2
o2
n-0.915
v7
v3
C5
o54
16
o2
o2
n0.045
v0
v4
o2
o2
n0.13
v0
v5
o2
o2
n0.685
v0
v6
o2
o2
n0.76
v1
v5
o2
o2
n-0.815
v1
v6
o2
o2
n0.44
v2
v5
o2
o2
n-0.895
v2
v6
o2
o2
n0.14
v3
v5
o2
o2
n0.045
v4
v0
o2
o2
n0.13
v5
v0
o2
o2
n0.76
v5
v1
o2
o2
n0.44
v5
v2
o2
o2
n0.14
v5
v3
o2
o2
n0.685
v6
v0
o2
o2
n-0.815
v6
v1
o2
o2
n-0.895
v6
v2
C6
o54
16
o2
o2
n-0.85
v0
v5
o2
o2
n-0.09
v0
v6
o2
o2
n-0.545
v1
v6
o2
o2
n-0.73
v1
v7
o2
o2
n-0.86
v2
v4
o2
o2
n-0.545
v3
v5
o2
o2
n-0.835
v3
v6
o2
o2
n-0.955
v3
v7
o2
o2
n-0.86
v4
v2
o2
o2
n-0.85
v5
v0
o2
o2
n-0.545
v5
v3
o2
o2
n-0.09
v6
v0
o2
o2
n-0.545
v6
v1
o2
o2
n-0.835
v6
v3
o2
o2
n-0.73
v7
v1
o2
o2
n-0.955
v7
v3
C7
o54
16
o2
o2
n-0.98
v0
v7
o2
o2
n-0.53
v1
v6
o2
o2
n-0.595
v1
v7
o2
o2
n0.965
v2
v4
o2
o2
n-0.16
v2
v5
o2
o2
n-0.12
v3
v5
o2
o2
n-0.425
v3
v6
o2
o2
n-0.105
v3
v7
o2
o2
n0.965
v4
v2
o2
o2
n-0.16
v5
v2
o2
o2
n-0.12
v5
v3
o2
o2
n-0.53
v6
v1
o2
o2
n-0.425
v6
v3
o2
o2
n-0.98
v7
v0
o2
o2
n-0.595
v7
v1
o2
o2
n-0.105
v7
v3
O0 0
o54
16
o2
o2
n-0.52
v0
v5
o2
o2
n-0.465
v0
v7
o2
o2
n-0.555
v1
v5
o2
o2
n-0.76
v1
v6
o2
o2
n-0.8
v2
v4
o2
o2
n0.63
v2
v6
o2
o2
n-0.81
v2
v7
o2
o2
n0.715
v3
v4
o2
o2
n-0.8
v4
v2
o2
o2
n0.715
v4
v3
o2
o2
n-0.52
v5
v0
o2
o2
n-0.555
v5
v1
o2
o2
n-0.76
v6
v1
o2
o2
n0.63
v6
v2
o2
o2
n-0.465
v7
v0
o2
o2
n-0.81
v7
v2
k7
8
16
24
32
40
48
56
J0 8
0 -0.18
1 0.77
2 -0.5
3 -0.55
4 0.58
5 -0.61
6 -0.17
7 0.21
J1 8
0 0.88
1 0.67
2 -0.37
3 -0.26
4 0.39
5 -0.34
6 -0.13
7 -0.3
J2 8
0 1
1 0.01
2 0.43
3 0.14
4 0.77
5 0.57
6 -0.54
7 -0.09
J3 8
0 -0.75
1 0.6
2 0.84
3 0.99
4 -0.71
5 -0.05
6 -0.73
7 -0.86
J4 8
0 -0.84
1 0.9
2 0.25
3 -0.25
4 -0.15
5 0.09
6 -0.4
7 -0.2
J5 8
0 -0.71
1 -0.83
2 0.63
3 -0.21
4 0.58
5 0.41
6 -0.27
7 0.23
J6 8
0 0.36
1 0.67
2 0.92
3 -0.33
4 -0.51
5 -0.14
6 -0.24
7 -0.43
J7 8
0 -0.88
1 0.79
2 -0.01
3 -0.08
4 0.55
5 0.66
6 0.62
7 0.78
G0 8
0 0.21
1 -0.75
2 0.93
3 0.88
4 0.35
5 0.67
6 0.74
7 0.92
